mapa = [|
         9,9,9,9,9,9,9,9,9|
         9,8,8,8,1,8,8,8,9|
         9,8,9,9,8,9,9,8,9|
         9,8,8,8,1,8,8,8,9|
         9,8,8,9,8,9,8,8,9|
         9,8,8,8,1,8,8,8,9|
         9,9,8,8,8,8,8,9,9|
         9,9,9,9,9,9,9,9,9|];
dimx = 8;
dimy = 9;
filav = 7;
colav = 5;
